c Reduced graph for GEOM30a_4 generated by Cyril Grelier
p edge 20 60
v 1 10
v 2 10
v 3 10
v 4 9
v 5 9
v 6 9
v 7 9
v 8 8
v 9 7
v 10 7
v 11 6
v 12 5
v 13 5
v 14 4
v 15 3
v 16 2
v 17 2
v 18 1
v 19 1
v 20 1
e 1 4
e 1 11
e 1 12
e 1 15
e 1 16
e 1 19
e 2 3
e 2 5
e 2 7
e 2 9
e 2 13
e 3 5
e 3 9
e 4 8
e 4 11
e 4 12
e 4 14
e 4 15
e 4 16
e 4 17
e 4 18
e 4 20
e 5 7
e 5 9
e 5 13
e 6 10
e 6 11
e 6 16
e 6 19
e 7 9
e 7 13
e 8 10
e 8 11
e 8 14
e 8 16
e 9 13
e 10 11
e 10 16
e 10 19
e 11 14
e 11 15
e 11 16
e 11 19
e 12 14
e 12 15
e 12 16
e 12 17
e 12 18
e 12 20
e 14 16
e 14 18
e 15 16
e 15 17
e 15 18
e 15 19
e 15 20
e 16 19
e 17 18
e 17 20
e 18 20
